
******************************************************************************
This program contains Ipopt, a library for large-scale nonlinear optimization.
 Ipopt is released as open source code under the Eclipse Public License (EPL).
         For more information visit http://projects.coin-or.org/Ipopt

This version of Ipopt was compiled from source code available at
    https://github.com/IDAES/Ipopt as part of the Institute for the Design of
    Advanced Energy Systems Process Systems Engineering Framework (IDAES PSE
    Framework) Copyright (c) 2018-2019. See https://github.com/IDAES/idaes-pse.

This version of Ipopt was compiled using HSL, a collection of Fortran codes
    for large-scale scientific computation.  All technical papers, sales and
    publicity material resulting from use of the HSL codes within IPOPT must
    contain the following acknowledgement:
        HSL, a collection of Fortran codes for large-scale scientific
        computation. See http://www.hsl.rl.ac.uk.
******************************************************************************

This is Ipopt version 3.13.2, running with linear solver ma27.

Number of nonzeros in equality constraint Jacobian...:     1588
Number of nonzeros in inequality constraint Jacobian.:        0
Number of nonzeros in Lagrangian Hessian.............:     2432

Total number of variables............................:      576
                     variables with only lower bounds:      128
                variables with lower and upper bounds:      384
                     variables with only upper bounds:        0
Total number of equality constraints.................:      570
Total number of inequality constraints...............:        0
        inequality constraints with only lower bounds:        0
   inequality constraints with lower and upper bounds:        0
        inequality constraints with only upper bounds:        0

iter    objective    inf_pr   inf_du lg(mu)  ||d||  lg(rg) alpha_du alpha_pr  ls
   0  0.0000000e+00 2.69e+00 1.09e-14  -1.0 0.00e+00    -  0.00e+00 0.00e+00   0
   1  1.1645739e+01 6.19e+00 1.85e+03  -1.0 4.39e+04    -  5.79e-01 9.90e-01h  1
   2  1.1844445e+01 3.76e-01 1.52e+02  -1.0 4.69e+03    -  8.38e-01 9.90e-01h  1
   3  1.1808254e+01 2.55e-02 1.01e+02  -1.0 3.50e+02    -  9.89e-01 9.90e-01h  1
   4  1.1421272e+01 5.05e-02 1.58e+06  -1.0 4.75e+03    -  8.32e-01 9.90e-01H  1
   5  1.1421021e+01 5.05e-02 9.61e+08  -1.0 1.32e+04    -  9.63e-01 2.31e-04h 13
   6  1.1418155e+01 5.05e-02 1.51e+09  -1.0 2.15e+03    -  5.83e-01 1.55e-02h  7
   7  1.1417658e+01 5.05e-02 2.52e+09  -1.0 1.68e+04    -  9.90e-01 3.63e-04h 12
   8  1.1413399e+01 5.04e-02 3.08e+09  -1.0 1.61e+03    -  6.58e-01 3.09e-02h  6
   9  1.1413150e+01 5.04e-02 4.12e+09  -1.0 1.40e+04    -  9.96e-01 2.22e-04h 13
iter    objective    inf_pr   inf_du lg(mu)  ||d||  lg(rg) alpha_du alpha_pr  ls
  10  1.1410911e+01 5.01e-02 4.73e+09  -1.0 1.74e+03    -  6.55e-01 1.55e-02h  7
  11  1.1410662e+01 5.01e-02 5.79e+09  -1.0 1.32e+04    -  1.00e+00 2.39e-04h 13
  12  1.1408436e+01 4.97e-02 6.39e+09  -1.0 1.75e+03    -  6.60e-01 1.55e-02h  7
  13  1.1408204e+01 4.97e-02 7.47e+09  -1.0 1.23e+04    -  1.00e+00 2.42e-04h 13
  14  1.1405967e+01 4.93e-02 8.06e+09  -1.0 1.79e+03    -  6.64e-01 1.55e-02h  7
  15  1.3029549e+01 8.64e+01 9.16e+07  -1.0 1.15e+04    -  1.00e+00 9.90e-01w  1
  16  6.8263177e+01 9.51e-01 1.10e+09  -1.0 7.92e+04    -  1.00e+00 9.90e-01w  1
  17  1.0842381e+02 8.53e-01 1.06e+12  -1.0 5.01e+05    -  1.82e-01 8.63e-02w  1
  18  1.1405538e+01 4.93e-02 9.15e+09  -1.0 4.05e+05    -  1.00e+00 4.83e-04h 11
  19  1.1403296e+01 4.90e-02 9.73e+09  -1.0 1.83e+03    -  6.70e-01 1.55e-02h  7
iter    objective    inf_pr   inf_du lg(mu)  ||d||  lg(rg) alpha_du alpha_pr  ls
  20  1.1402902e+01 4.90e-02 1.08e+10  -1.0 1.08e+04    -  1.00e+00 4.83e-04h 12
  21  1.1400655e+01 4.87e-02 1.14e+10  -1.0 1.87e+03    -  6.76e-01 1.55e-02h  7
  22  1.1400293e+01 4.87e-02 1.25e+10  -1.0 1.00e+04    -  1.00e+00 4.83e-04h 12
  23  1.1398043e+01 4.83e-02 1.31e+10  -1.0 1.90e+03    -  6.84e-01 1.55e-02h  7
  24  1.1397710e+01 4.83e-02 1.43e+10  -1.0 9.37e+03    -  1.00e+00 4.83e-04h 12
  25  1.1395461e+01 4.80e-02 1.48e+10  -1.0 1.94e+03    -  6.93e-01 1.55e-02h  7
  26  1.1394850e+01 4.80e-02 1.60e+10  -1.0 8.77e+03    -  1.00e+00 9.67e-04h 11
  27  1.1392610e+01 4.77e-02 1.65e+10  -1.0 1.97e+03    -  7.05e-01 1.55e-02h  7
  28  1.2059540e+01 1.27e-01 1.77e+08  -1.0 8.14e+03    -  1.00e+00 9.90e-01w  1
  29  1.1326424e+01 4.83e-03 1.19e+09  -1.0 6.11e+03    -  1.00e+00 9.90e-01w  1
iter    objective    inf_pr   inf_du lg(mu)  ||d||  lg(rg) alpha_du alpha_pr  ls
  30  1.1324587e+01 4.44e-05 1.19e+11  -1.0 7.29e+01    -  1.00e+00 9.90e-01h  1
In iteration 30, 32 Slacks too small, adjusting variable bounds
  31  1.1324570e+01 4.44e-07 1.19e+13  -1.0 7.27e-01    -  1.00e+00 9.90e-01h  1
  32  1.1324570e+01 1.94e-09 1.00e-06  -1.0 7.26e-03    -  1.00e+00 1.00e+00h  1
  33  1.1318615e+01 9.47e-09 2.18e+11  -9.0 4.75e+02    -  9.82e-01 1.00e+00F  1
  34  1.1317269e+01 3.64e-09 1.52e+09  -9.0 3.32e+02    -  9.93e-01 1.00e+00F  1
  35  1.1317269e+01 6.41e-10 1.37e-07  -9.0 5.00e+00    -  1.00e+00 1.00e+00h  1

Number of Iterations....: 35

                                   (scaled)                 (unscaled)
Objective...............:   1.1317268869258870e+01    1.1317268869258870e+01
Dual infeasibility......:   1.3654062058776617e-07    1.3654062058776617e-07
Constraint violation....:   6.4103788943725704e-10    6.4103788943725704e-10
Complementarity.........:   2.0247029033120472e-08    2.0247029033120472e-08
Overall NLP error.......:   2.8435327566505396e-09    1.3654062058776617e-07


Number of objective function evaluations             = 267
Number of objective gradient evaluations             = 36
Number of equality constraint evaluations            = 267
Number of inequality constraint evaluations          = 0
Number of equality constraint Jacobian evaluations   = 36
Number of inequality constraint Jacobian evaluations = 0
Number of Lagrangian Hessian evaluations             = 35
Total CPU secs in IPOPT (w/o function evaluations)   =      0.105
Total CPU secs in NLP function evaluations           =      2.497

EXIT: Optimal Solution Found.
